Route #1: 0 104 41 65 11 36 103 38 55 90 24 72 26 0
Route #2: 0 64 111 52 54 114 44 27 84 75 83 14 68 43 40 1 34 69 13 0
Route #3: 0 50 53 28 9 30 88 82 21 110 46 0
Route #4: 0 15 32 89 106 79 18 99 35 4 57 107 59 0
Route #5: 0 10 93 109 66 0
Route #6: 0 5 6 25 0
Route #7: 0 105 85 63 98 71 76 80 97 77 81 33 61 102 70 56 2 0
Route #8: 0 112 74 7 37 39 67 8 78 0
Route #9: 0 29 100 62 94 20 92 95 42 3 49 47 73 87 86 48 19 51 0
Route #10: 0 91 23 31 58 113 12 45 96 22 108 60 16 17 101 0
Cost 19072:
